<number of tasks>
250

<cycle time>
1000

<order strength>
0.598


<task times>
1 305
2 115
3 486
4 99
5 125
6 226
7 119
8 502
9 188
10 114
11 467
12 506
13 267
14 473
15 333
16 134
17 138
18 26
19 176
20 569
21 507
22 104
23 141
24 122
25 392
26 538
27 354
28 100
29 210
30 529
31 61
32 277
33 120
34 177
35 229
36 524
37 64
38 70
39 591
40 98
41 134
42 153
43 149
44 134
45 528
46 260
47 178
48 255
49 61
50 229
51 331
52 464
53 152
54 119
55 489
56 46
57 163
58 182
59 295
60 68
61 130
62 526
63 581
64 110
65 65
66 268
67 201
68 237
69 342
70 65
71 457
72 109
73 151
74 74
75 204
76 192
77 173
78 340
79 598
80 207
81 22
82 47
83 110
84 85
85 271
86 173
87 249
88 487
89 492
90 31
91 266
92 115
93 544
94 202
95 412
96 159
97 148
98 192
99 113
100 288
101 63
102 343
103 339
104 216
105 127
106 490
107 263
108 516
109 203
110 66
111 191
112 454
113 44
114 44
115 97
116 232
117 247
118 455
119 196
120 147
121 224
122 188
123 190
124 268
125 501
126 216
127 133
128 208
129 372
130 160
131 501
132 571
133 23
134 149
135 36
136 483
137 76
138 118
139 97
140 504
141 158
142 475
143 555
144 291
145 98
146 182
147 164
148 228
149 512
150 350
151 342
152 515
153 351
154 171
155 429
156 176
157 548
158 85
159 493
160 129
161 182
162 22
163 183
164 252
165 469
166 183
167 218
168 210
169 91
170 208
171 162
172 280
173 416
174 229
175 202
176 121
177 54
178 358
179 49
180 25
181 287
182 223
183 121
184 136
185 518
186 527
187 25
188 248
189 84
190 63
191 69
192 472
193 110
194 559
195 97
196 43
197 218
198 377
199 156
200 218
201 510
202 67
203 213
204 77
205 72
206 125
207 291
208 29
209 193
210 47
211 294
212 274
213 523
214 375
215 301
216 228
217 262
218 142
219 59
220 288
221 205
222 465
223 81
224 79
225 165
226 500
227 138
228 184
229 88
230 506
231 215
232 142
233 88
234 69
235 199
236 264
237 148
238 244
239 45
240 105
241 264
242 102
243 173
244 201
245 281
246 29
247 110
248 482
249 491
250 49

<precedence relations>
1,8
2,9
2,11
2,12
2,16
3,10
3,13
3,16
4,31
5,14
5,15
6,13
6,14
7,13
7,14
7,16
8,18
9,17
10,19
11,20
12,21
13,22
13,23
14,22
14,23
14,29
15,22
15,23
15,29
16,22
17,27
18,25
19,29
20,26
21,27
22,24
22,27
22,30
22,31
22,34
23,27
23,28
23,32
23,33
24,35
25,37
26,38
27,38
27,39
27,40
28,36
28,38
28,40
29,61
29,78
30,38
30,39
31,38
31,39
31,40
31,41
32,38
32,39
32,40
33,38
33,39
33,55
34,96
34,107
34,109
35,42
36,43
37,47
38,45
38,46
39,44
39,46
40,46
40,47
41,46
42,48
43,52
44,50
45,51
46,49
46,52
46,54
46,78
47,52
47,53
47,54
47,55
47,78
48,57
49,56
50,58
51,58
52,58
52,59
52,60
52,61
53,58
54,59
54,60
54,67
55,58
56,62
57,64
58,72
58,90
59,63
59,66
59,81
59,88
59,111
60,65
60,66
61,65
61,66
61,67
62,68
63,69
64,70
65,71
66,71
67,72
67,73
68,74
69,75
70,78
71,77
71,82
72,77
72,79
72,81
73,76
73,80
73,109
73,143
74,83
75,86
76,84
76,88
76,89
76,163
77,85
77,89
78,122
78,130
78,236
79,87
80,185
80,193
81,104
82,90
82,114
83,92
84,91
85,93
86,95
87,94
88,133
88,154
88,193
89,142
90,96
91,98
92,97
93,98
94,99
95,100
95,103
95,113
96,112
96,113
96,115
96,128
97,101
98,122
98,185
99,102
99,103
99,104
99,107
100,105
100,106
100,133
100,136
100,137
101,109
102,108
102,109
102,111
102,120
103,114
103,115
103,122
104,109
104,110
105,112
107,113
107,115
108,117
109,116
109,118
110,119
110,122
110,133
110,143
110,163
111,124
111,246
112,120
112,121
112,123
112,124
112,183
113,164
114,144
114,200
115,120
115,121
115,166
115,194
116,125
117,128
118,126
119,127
120,130
120,153
120,186
120,248
121,176
121,205
121,245
122,186
122,206
122,207
122,219
123,129
123,134
124,166
124,241
125,133
126,133
127,132
128,131
128,134
128,136
128,137
128,174
129,201
130,135
130,175
130,228
130,240
131,138
132,141
133,142
133,144
134,139
134,151
135,140
135,241
136,193
136,197
137,143
138,147
139,145
140,146
141,148
142,149
142,150
142,153
143,152
143,154
143,185
144,151
144,211
145,163
146,157
147,158
148,160
149,161
150,162
151,155
151,164
151,165
152,156
152,165
153,159
153,198
154,166
154,241
154,246
155,168
156,169
157,170
158,167
159,171
160,172
161,174
162,173
163,175
163,193
163,198
164,175
164,176
164,206
164,248
165,184
165,209
165,243
166,177
167,179
168,180
169,183
170,184
171,185
172,181
173,183
174,178
174,183
175,182
175,192
176,187
176,208
177,186
177,187
177,197
177,200
178,188
179,190
180,189
181,193
182,191
183,194
184,192
186,243
187,209
188,197
189,197
190,196
191,197
192,195
192,201
192,208
193,200
193,201
194,197
194,198
194,199
194,200
195,203
196,204
197,220
198,202
198,227
198,245
199,208
199,211
200,205
200,206
200,207
200,209
200,228
201,210
202,213
203,214
204,216
205,212
205,215
205,217
205,218
208,220
209,240
211,219
212,221
213,223
214,227
215,224
216,228
217,225
218,226
219,222
219,237
220,229
220,230
221,231
222,232
223,233
224,235
225,234
226,236
227,238
228,237
230,238
231,240
232,241
233,239
234,240
236,244
237,243
237,245
238,242
239,246
240,247
243,249
244,248
244,250

<end>
